Sn Se
 1.0000000000000000
     4.1722875000000004    0.0000000000000000    0.0000000000000000
     0.0000000000000000    4.4635285714285713    0.0000000000000000
     0.0000000000000000    0.0000000000000000   30.3829203452500067
 Sn  Se
   4   4
Selective dynamics
Direct
  0.4999999999999996  0.8765499999999999  0.4281364513741893   F   F   T
  0.0000000000000000  0.3765499999999999  0.3295732511955680   F   F   T
  0.5000003508771926  0.7901142105263161  0.6713086810774179   F   F   T
  0.0000003508771929  0.2901142105263161  0.5709816163528253   F   F   T
  0.0000000000000000  0.4908199999999991  0.4169572329468508   F   F   T
  0.4999999999999996  0.9908199999999995  0.3407524696229065   F   F   T
  0.9999996491228068  0.1758491228070180  0.6599259398178517   F   F   T
  0.4999996491228071  0.6758491228070181  0.5823643576123915   F   F   T
